Fe S
1.0
       -2.9474930000         5.1078100000        -0.0005460000
        0.0030670000         0.0004580000        11.4205140000
        5.8946390000        -0.0001910000         0.0015120000
 Fe S
 12 12
Selective dynamics
Cartesian
        1.5694689842         3.4672736019         7.0925239688
        2.2162950750         3.0930629936         4.3290245067
       -0.7297526297         2.0148010469         7.0947638654
       -0.8353414523         4.7345704852         7.0945402725
        2.2186988393         3.0921479419         1.3830123431
        4.5142581113         1.6446952705         1.3804010021
       -0.8338233098         4.7333246900        10.0366475378
       -0.7276537265         2.0166045746        10.0377736256
        4.5152134211         1.6391798784         4.3333345940
        2.1093865690         0.3729166362         1.3823585578
        1.5718282625         3.4659513350        10.0389027186
        2.1147164577         0.3753637425         4.3281443580
        3.8968536669         0.0113221461         2.8528849032
        2.9511673836         1.7018582249        11.1311335101
       -0.0000674191         3.4051167225         5.4147766245
        1.0122575658         1.7253859425         2.8550706039
        3.9338122391         3.3709918608         2.8579091021
        0.9861037489         1.7405508431         8.5664745880
       -2.9437514968         5.1071084564        11.4182093663
        2.9487108394         1.7040020676         6.0008557130
        0.0005120222         3.4041605454         0.2959999354
        0.9512467270         5.0909776944         8.5658154112
        5.8944720010         0.0001249023         5.7121682853
       -1.9305194356         3.3856562888         8.5652801864
