Fe2 S4
1.0
       13.5107926800         0.0000000000         0.0000000000
        0.0000000000        17.7024994800         0.0000000000
        0.0000000000         0.0000000000        21.5861128800
   Fe    S
  128  256
Cartesian
        1.6888490850         2.2128124350         2.6982641100
        1.6888490850         2.2128124350         8.0947923300
        1.6888490850         2.2128124350        13.4913205500
        1.6888490850         2.2128124350        18.8878487700
        1.6888490850         6.6384373050         2.6982641100
        1.6888490850         6.6384373050         8.0947923300
        1.6888490850         6.6384373050        13.4913205500
        1.6888490850         6.6384373050        18.8878487700
        1.6888490850        11.0640621750         2.6982641100
        1.6888490850        11.0640621750         8.0947923300
        1.6888490850        11.0640621750        13.4913205500
        1.6888490850        11.0640621750        18.8878487700
        1.6888490850        15.4896870450         2.6982641100
        1.6888490850        15.4896870450         8.0947923300
        1.6888490850        15.4896870450        13.4913205500
        1.6888490850        15.4896870450        18.8878487700
        5.0665472550         2.2128124350         2.6982641100
        5.0665472550         2.2128124350         8.0947923300
        5.0665472550         2.2128124350        13.4913205500
        5.0665472550         2.2128124350        18.8878487700
        5.0665472550         6.6384373050         2.6982641100
        5.0665472550         6.6384373050         8.0947923300
        5.0665472550         6.6384373050        13.4913205500
        5.0665472550         6.6384373050        18.8878487700
        5.0665472550        11.0640621750         2.6982641100
        5.0665472550        11.0640621750         8.0947923300
        5.0665472550        11.0640621750        13.4913205500
        5.0665472550        11.0640621750        18.8878487700
        5.0665472550        15.4896870450         2.6982641100
        5.0665472550        15.4896870450         8.0947923300
        5.0665472550        15.4896870450        13.4913205500
        5.0665472550        15.4896870450        18.8878487700
        8.4442454250         2.2128124350         2.6982641100
        8.4442454250         2.2128124350         8.0947923300
        8.4442454250         2.2128124350        13.4913205500
        8.4442454250         2.2128124350        18.8878487700
        8.4442454250         6.6384373050         2.6982641100
        8.4442454250         6.6384373050         8.0947923300
        8.4442454250         6.6384373050        13.4913205500
        8.4442454250         6.6384373050        18.8878487700
        8.4442454250        11.0640621750         2.6982641100
        8.4442454250        11.0640621750         8.0947923300
        8.4442454250        11.0640621750        13.4913205500
        8.4442454250        11.0640621750        18.8878487700
        8.4442454250        15.4896870450         2.6982641100
        8.4442454250        15.4896870450         8.0947923300
        8.4442454250        15.4896870450        13.4913205500
        8.4442454250        15.4896870450        18.8878487700
       11.8219435950         2.2128124350         2.6982641100
       11.8219435950         2.2128124350         8.0947923300
       11.8219435950         2.2128124350        13.4913205500
       11.8219435950         2.2128124350        18.8878487700
       11.8219435950         6.6384373050         2.6982641100
       11.8219435950         6.6384373050         8.0947923300
       11.8219435950         6.6384373050        13.4913205500
       11.8219435950         6.6384373050        18.8878487700
       11.8219435950        11.0640621750         2.6982641100
       11.8219435950        11.0640621750         8.0947923300
       11.8219435950        11.0640621750        13.4913205500
       11.8219435950        11.0640621750        18.8878487700
       11.8219435950        15.4896870450         2.6982641100
       11.8219435950        15.4896870450         8.0947923300
       11.8219435950        15.4896870450        13.4913205500
       11.8219435950        15.4896870450        18.8878487700
        0.0000000000         0.0000000000         0.0000000000
        0.0000000000         0.0000000000         5.3965282200
        0.0000000000         0.0000000000        10.7930564400
        0.0000000000         0.0000000000        16.1895846600
        0.0000000000         4.4256248700         0.0000000000
        0.0000000000         4.4256248700         5.3965282200
        0.0000000000         4.4256248700        10.7930564400
        0.0000000000         4.4256248700        16.1895846600
        0.0000000000         8.8512497400         0.0000000000
        0.0000000000         8.8512497400         5.3965282200
        0.0000000000         8.8512497400        10.7930564400
        0.0000000000         8.8512497400        16.1895846600
        0.0000000000        13.2768746100         0.0000000000
        0.0000000000        13.2768746100         5.3965282200
        0.0000000000        13.2768746100        10.7930564400
        0.0000000000        13.2768746100        16.1895846600
        3.3776981700         0.0000000000         0.0000000000
        3.3776981700         0.0000000000         5.3965282200
        3.3776981700         0.0000000000        10.7930564400
        3.3776981700         0.0000000000        16.1895846600
        3.3776981700         4.4256248700         0.0000000000
        3.3776981700         4.4256248700         5.3965282200
        3.3776981700         4.4256248700        10.7930564400
        3.3776981700         4.4256248700        16.1895846600
        3.3776981700         8.8512497400         0.0000000000
        3.3776981700         8.8512497400         5.3965282200
        3.3776981700         8.8512497400        10.7930564400
        3.3776981700         8.8512497400        16.1895846600
        3.3776981700        13.2768746100         0.0000000000
        3.3776981700        13.2768746100         5.3965282200
        3.3776981700        13.2768746100        10.7930564400
        3.3776981700        13.2768746100        16.1895846600
        6.7553963400         0.0000000000         0.0000000000
        6.7553963400         0.0000000000         5.3965282200
        6.7553963400         0.0000000000        10.7930564400
        6.7553963400         0.0000000000        16.1895846600
        6.7553963400         4.4256248700         0.0000000000
        6.7553963400         4.4256248700         5.3965282200
        6.7553963400         4.4256248700        10.7930564400
        6.7553963400         4.4256248700        16.1895846600
        6.7553963400         8.8512497400         0.0000000000
        6.7553963400         8.8512497400         5.3965282200
        6.7553963400         8.8512497400        10.7930564400
        6.7553963400         8.8512497400        16.1895846600
        6.7553963400        13.2768746100         0.0000000000
        6.7553963400        13.2768746100         5.3965282200
        6.7553963400        13.2768746100        10.7930564400
        6.7553963400        13.2768746100        16.1895846600
       10.1330945100         0.0000000000         0.0000000000
       10.1330945100         0.0000000000         5.3965282200
       10.1330945100         0.0000000000        10.7930564400
       10.1330945100         0.0000000000        16.1895846600
       10.1330945100         4.4256248700         0.0000000000
       10.1330945100         4.4256248700         5.3965282200
       10.1330945100         4.4256248700        10.7930564400
       10.1330945100         4.4256248700        16.1895846600
       10.1330945100         8.8512497400         0.0000000000
       10.1330945100         8.8512497400         5.3965282200
       10.1330945100         8.8512497400        10.7930564400
       10.1330945100         8.8512497400        16.1895846600
       10.1330945100        13.2768746100         0.0000000000
       10.1330945100        13.2768746100         5.3965282200
       10.1330945100        13.2768746100        10.7930564400
       10.1330945100        13.2768746100        16.1895846600
        1.6888490850         1.3258853908         4.7391483540
        1.6888490850         1.3258853908        10.1356765740
        1.6888490850         1.3258853908        15.5322047940
        1.6888490850         1.3258853908        20.9287330140
        1.6888490850         5.7515102608         4.7391483540
        1.6888490850         5.7515102608        10.1356765740
        1.6888490850         5.7515102608        15.5322047940
        1.6888490850         5.7515102608        20.9287330140
        1.6888490850        10.1771351308         4.7391483540
        1.6888490850        10.1771351308        10.1356765740
        1.6888490850        10.1771351308        15.5322047940
        1.6888490850        10.1771351308        20.9287330140
        1.6888490850        14.6027600008         4.7391483540
        1.6888490850        14.6027600008        10.1356765740
        1.6888490850        14.6027600008        15.5322047940
        1.6888490850        14.6027600008        20.9287330140
        5.0665472550         1.3258853908         4.7391483540
        5.0665472550         1.3258853908        10.1356765740
        5.0665472550         1.3258853908        15.5322047940
        5.0665472550         1.3258853908        20.9287330140
        5.0665472550         5.7515102608         4.7391483540
        5.0665472550         5.7515102608        10.1356765740
        5.0665472550         5.7515102608        15.5322047940
        5.0665472550         5.7515102608        20.9287330140
        5.0665472550        10.1771351308         4.7391483540
        5.0665472550        10.1771351308        10.1356765740
        5.0665472550        10.1771351308        15.5322047940
        5.0665472550        10.1771351308        20.9287330140
        5.0665472550        14.6027600008         4.7391483540
        5.0665472550        14.6027600008        10.1356765740
        5.0665472550        14.6027600008        15.5322047940
        5.0665472550        14.6027600008        20.9287330140
        8.4442454250         1.3258853908         4.7391483540
        8.4442454250         1.3258853908        10.1356765740
        8.4442454250         1.3258853908        15.5322047940
        8.4442454250         1.3258853908        20.9287330140
        8.4442454250         5.7515102608         4.7391483540
        8.4442454250         5.7515102608        10.1356765740
        8.4442454250         5.7515102608        15.5322047940
        8.4442454250         5.7515102608        20.9287330140
        8.4442454250        10.1771351308         4.7391483540
        8.4442454250        10.1771351308        10.1356765740
        8.4442454250        10.1771351308        15.5322047940
        8.4442454250        10.1771351308        20.9287330140
        8.4442454250        14.6027600008         4.7391483540
        8.4442454250        14.6027600008        10.1356765740
        8.4442454250        14.6027600008        15.5322047940
        8.4442454250        14.6027600008        20.9287330140
       11.8219435950         1.3258853908         4.7391483540
       11.8219435950         1.3258853908        10.1356765740
       11.8219435950         1.3258853908        15.5322047940
       11.8219435950         1.3258853908        20.9287330140
       11.8219435950         5.7515102608         4.7391483540
       11.8219435950         5.7515102608        10.1356765740
       11.8219435950         5.7515102608        15.5322047940
       11.8219435950         5.7515102608        20.9287330140
       11.8219435950        10.1771351308         4.7391483540
       11.8219435950        10.1771351308        10.1356765740
       11.8219435950        10.1771351308        15.5322047940
       11.8219435950        10.1771351308        20.9287330140
       11.8219435950        14.6027600008         4.7391483540
       11.8219435950        14.6027600008        10.1356765740
       11.8219435950        14.6027600008        15.5322047940
       11.8219435950        14.6027600008        20.9287330140
        1.6888490850         3.0997394792         0.6573798660
        1.6888490850         3.0997394792         6.0539080860
        1.6888490850         3.0997394792        11.4504363060
        1.6888490850         3.0997394792        16.8469645260
        1.6888490850         7.5253643492         0.6573798660
        1.6888490850         7.5253643492         6.0539080860
        1.6888490850         7.5253643492        11.4504363060
        1.6888490850         7.5253643492        16.8469645260
        1.6888490850        11.9509892192         0.6573798660
        1.6888490850        11.9509892192         6.0539080860
        1.6888490850        11.9509892192        11.4504363060
        1.6888490850        11.9509892192        16.8469645260
        1.6888490850        16.3766140892         0.6573798660
        1.6888490850        16.3766140892         6.0539080860
        1.6888490850        16.3766140892        11.4504363060
        1.6888490850        16.3766140892        16.8469645260
        5.0665472550         3.0997394792         0.6573798660
        5.0665472550         3.0997394792         6.0539080860
        5.0665472550         3.0997394792        11.4504363060
        5.0665472550         3.0997394792        16.8469645260
        5.0665472550         7.5253643492         0.6573798660
        5.0665472550         7.5253643492         6.0539080860
        5.0665472550         7.5253643492        11.4504363060
        5.0665472550         7.5253643492        16.8469645260
        5.0665472550        11.9509892192         0.6573798660
        5.0665472550        11.9509892192         6.0539080860
        5.0665472550        11.9509892192        11.4504363060
        5.0665472550        11.9509892192        16.8469645260
        5.0665472550        16.3766140892         0.6573798660
        5.0665472550        16.3766140892         6.0539080860
        5.0665472550        16.3766140892        11.4504363060
        5.0665472550        16.3766140892        16.8469645260
        8.4442454250         3.0997394792         0.6573798660
        8.4442454250         3.0997394792         6.0539080860
        8.4442454250         3.0997394792        11.4504363060
        8.4442454250         3.0997394792        16.8469645260
        8.4442454250         7.5253643492         0.6573798660
        8.4442454250         7.5253643492         6.0539080860
        8.4442454250         7.5253643492        11.4504363060
        8.4442454250         7.5253643492        16.8469645260
        8.4442454250        11.9509892192         0.6573798660
        8.4442454250        11.9509892192         6.0539080860
        8.4442454250        11.9509892192        11.4504363060
        8.4442454250        11.9509892192        16.8469645260
        8.4442454250        16.3766140892         0.6573798660
        8.4442454250        16.3766140892         6.0539080860
        8.4442454250        16.3766140892        11.4504363060
        8.4442454250        16.3766140892        16.8469645260
       11.8219435950         3.0997394792         0.6573798660
       11.8219435950         3.0997394792         6.0539080860
       11.8219435950         3.0997394792        11.4504363060
       11.8219435950         3.0997394792        16.8469645260
       11.8219435950         7.5253643492         0.6573798660
       11.8219435950         7.5253643492         6.0539080860
       11.8219435950         7.5253643492        11.4504363060
       11.8219435950         7.5253643492        16.8469645260
       11.8219435950        11.9509892192         0.6573798660
       11.8219435950        11.9509892192         6.0539080860
       11.8219435950        11.9509892192        11.4504363060
       11.8219435950        11.9509892192        16.8469645260
       11.8219435950        16.3766140892         0.6573798660
       11.8219435950        16.3766140892         6.0539080860
       11.8219435950        16.3766140892        11.4504363060
       11.8219435950        16.3766140892        16.8469645260
        0.0000000000         0.8869270442         2.0408842440
        0.0000000000         0.8869270442         7.4374124640
        0.0000000000         0.8869270442        12.8339406840
        0.0000000000         0.8869270442        18.2304689040
        0.0000000000         5.3125519142         2.0408842440
        0.0000000000         5.3125519142         7.4374124640
        0.0000000000         5.3125519142        12.8339406840
        0.0000000000         5.3125519142        18.2304689040
        0.0000000000         9.7381767842         2.0408842440
        0.0000000000         9.7381767842         7.4374124640
        0.0000000000         9.7381767842        12.8339406840
        0.0000000000         9.7381767842        18.2304689040
        0.0000000000        14.1638016542         2.0408842440
        0.0000000000        14.1638016542         7.4374124640
        0.0000000000        14.1638016542        12.8339406840
        0.0000000000        14.1638016542        18.2304689040
        3.3776981700         0.8869270442         2.0408842440
        3.3776981700         0.8869270442         7.4374124640
        3.3776981700         0.8869270442        12.8339406840
        3.3776981700         0.8869270442        18.2304689040
        3.3776981700         5.3125519142         2.0408842440
        3.3776981700         5.3125519142         7.4374124640
        3.3776981700         5.3125519142        12.8339406840
        3.3776981700         5.3125519142        18.2304689040
        3.3776981700         9.7381767842         2.0408842440
        3.3776981700         9.7381767842         7.4374124640
        3.3776981700         9.7381767842        12.8339406840
        3.3776981700         9.7381767842        18.2304689040
        3.3776981700        14.1638016542         2.0408842440
        3.3776981700        14.1638016542         7.4374124640
        3.3776981700        14.1638016542        12.8339406840
        3.3776981700        14.1638016542        18.2304689040
        6.7553963400         0.8869270442         2.0408842440
        6.7553963400         0.8869270442         7.4374124640
        6.7553963400         0.8869270442        12.8339406840
        6.7553963400         0.8869270442        18.2304689040
        6.7553963400         5.3125519142         2.0408842440
        6.7553963400         5.3125519142         7.4374124640
        6.7553963400         5.3125519142        12.8339406840
        6.7553963400         5.3125519142        18.2304689040
        6.7553963400         9.7381767842         2.0408842440
        6.7553963400         9.7381767842         7.4374124640
        6.7553963400         9.7381767842        12.8339406840
        6.7553963400         9.7381767842        18.2304689040
        6.7553963400        14.1638016542         2.0408842440
        6.7553963400        14.1638016542         7.4374124640
        6.7553963400        14.1638016542        12.8339406840
        6.7553963400        14.1638016542        18.2304689040
       10.1330945100         0.8869270442         2.0408842440
       10.1330945100         0.8869270442         7.4374124640
       10.1330945100         0.8869270442        12.8339406840
       10.1330945100         0.8869270442        18.2304689040
       10.1330945100         5.3125519142         2.0408842440
       10.1330945100         5.3125519142         7.4374124640
       10.1330945100         5.3125519142        12.8339406840
       10.1330945100         5.3125519142        18.2304689040
       10.1330945100         9.7381767842         2.0408842440
       10.1330945100         9.7381767842         7.4374124640
       10.1330945100         9.7381767842        12.8339406840
       10.1330945100         9.7381767842        18.2304689040
       10.1330945100        14.1638016542         2.0408842440
       10.1330945100        14.1638016542         7.4374124640
       10.1330945100        14.1638016542        12.8339406840
       10.1330945100        14.1638016542        18.2304689040
        0.0000000000         3.5386978258         3.3556439760
        0.0000000000         3.5386978258         8.7521721960
        0.0000000000         3.5386978258        14.1487004160
        0.0000000000         3.5386978258        19.5452286360
        0.0000000000         7.9643226958         3.3556439760
        0.0000000000         7.9643226958         8.7521721960
        0.0000000000         7.9643226958        14.1487004160
        0.0000000000         7.9643226958        19.5452286360
        0.0000000000        12.3899475658         3.3556439760
        0.0000000000        12.3899475658         8.7521721960
        0.0000000000        12.3899475658        14.1487004160
        0.0000000000        12.3899475658        19.5452286360
        0.0000000000        16.8155724358         3.3556439760
        0.0000000000        16.8155724358         8.7521721960
        0.0000000000        16.8155724358        14.1487004160
        0.0000000000        16.8155724358        19.5452286360
        3.3776981700         3.5386978258         3.3556439760
        3.3776981700         3.5386978258         8.7521721960
        3.3776981700         3.5386978258        14.1487004160
        3.3776981700         3.5386978258        19.5452286360
        3.3776981700         7.9643226958         3.3556439760
        3.3776981700         7.9643226958         8.7521721960
        3.3776981700         7.9643226958        14.1487004160
        3.3776981700         7.9643226958        19.5452286360
        3.3776981700        12.3899475658         3.3556439760
        3.3776981700        12.3899475658         8.7521721960
        3.3776981700        12.3899475658        14.1487004160
        3.3776981700        12.3899475658        19.5452286360
        3.3776981700        16.8155724358         3.3556439760
        3.3776981700        16.8155724358         8.7521721960
        3.3776981700        16.8155724358        14.1487004160
        3.3776981700        16.8155724358        19.5452286360
        6.7553963400         3.5386978258         3.3556439760
        6.7553963400         3.5386978258         8.7521721960
        6.7553963400         3.5386978258        14.1487004160
        6.7553963400         3.5386978258        19.5452286360
        6.7553963400         7.9643226958         3.3556439760
        6.7553963400         7.9643226958         8.7521721960
        6.7553963400         7.9643226958        14.1487004160
        6.7553963400         7.9643226958        19.5452286360
        6.7553963400        12.3899475658         3.3556439760
        6.7553963400        12.3899475658         8.7521721960
        6.7553963400        12.3899475658        14.1487004160
        6.7553963400        12.3899475658        19.5452286360
        6.7553963400        16.8155724358         3.3556439760
        6.7553963400        16.8155724358         8.7521721960
        6.7553963400        16.8155724358        14.1487004160
        6.7553963400        16.8155724358        19.5452286360
       10.1330945100         3.5386978258         3.3556439760
       10.1330945100         3.5386978258         8.7521721960
       10.1330945100         3.5386978258        14.1487004160
       10.1330945100         3.5386978258        19.5452286360
       10.1330945100         7.9643226958         3.3556439760
       10.1330945100         7.9643226958         8.7521721960
       10.1330945100         7.9643226958        14.1487004160
       10.1330945100         7.9643226958        19.5452286360
       10.1330945100        12.3899475658         3.3556439760
       10.1330945100        12.3899475658         8.7521721960
       10.1330945100        12.3899475658        14.1487004160
       10.1330945100        12.3899475658        19.5452286360
       10.1330945100        16.8155724358         3.3556439760
       10.1330945100        16.8155724358         8.7521721960
       10.1330945100        16.8155724358        14.1487004160
       10.1330945100        16.8155724358        19.5452286360
