Fe2 S4
1.0
       10.1330945100         0.0000000000         0.0000000000
        0.0000000000        13.2768746100         0.0000000000
        0.0000000000         0.0000000000        16.1895846600
   Fe    S
   54  108
Cartesian
        1.6888490850         2.2128124350         2.6982641100
        1.6888490850         2.2128124350         8.0947923300
        1.6888490850         2.2128124350        13.4913205500
        1.6888490850         6.6384373050         2.6982641100
        1.6888490850         6.6384373050         8.0947923300
        1.6888490850         6.6384373050        13.4913205500
        1.6888490850        11.0640621750         2.6982641100
        1.6888490850        11.0640621750         8.0947923300
        1.6888490850        11.0640621750        13.4913205500
        5.0665472550         2.2128124350         2.6982641100
        5.0665472550         2.2128124350         8.0947923300
        5.0665472550         2.2128124350        13.4913205500
        5.0665472550         6.6384373050         2.6982641100
        5.0665472550         6.6384373050         8.0947923300
        5.0665472550         6.6384373050        13.4913205500
        5.0665472550        11.0640621750         2.6982641100
        5.0665472550        11.0640621750         8.0947923300
        5.0665472550        11.0640621750        13.4913205500
        8.4442454250         2.2128124350         2.6982641100
        8.4442454250         2.2128124350         8.0947923300
        8.4442454250         2.2128124350        13.4913205500
        8.4442454250         6.6384373050         2.6982641100
        8.4442454250         6.6384373050         8.0947923300
        8.4442454250         6.6384373050        13.4913205500
        8.4442454250        11.0640621750         2.6982641100
        8.4442454250        11.0640621750         8.0947923300
        8.4442454250        11.0640621750        13.4913205500
        0.0000000000         0.0000000000         0.0000000000
        0.0000000000         0.0000000000         5.3965282200
        0.0000000000         0.0000000000        10.7930564400
        0.0000000000         4.4256248700         0.0000000000
        0.0000000000         4.4256248700         5.3965282200
        0.0000000000         4.4256248700        10.7930564400
        0.0000000000         8.8512497400         0.0000000000
        0.0000000000         8.8512497400         5.3965282200
        0.0000000000         8.8512497400        10.7930564400
        3.3776981700         0.0000000000         0.0000000000
        3.3776981700         0.0000000000         5.3965282200
        3.3776981700         0.0000000000        10.7930564400
        3.3776981700         4.4256248700         0.0000000000
        3.3776981700         4.4256248700         5.3965282200
        3.3776981700         4.4256248700        10.7930564400
        3.3776981700         8.8512497400         0.0000000000
        3.3776981700         8.8512497400         5.3965282200
        3.3776981700         8.8512497400        10.7930564400
        6.7553963400         0.0000000000         0.0000000000
        6.7553963400         0.0000000000         5.3965282200
        6.7553963400         0.0000000000        10.7930564400
        6.7553963400         4.4256248700         0.0000000000
        6.7553963400         4.4256248700         5.3965282200
        6.7553963400         4.4256248700        10.7930564400
        6.7553963400         8.8512497400         0.0000000000
        6.7553963400         8.8512497400         5.3965282200
        6.7553963400         8.8512497400        10.7930564400
        1.6888490850         1.3258853908         4.7391483540
        1.6888490850         1.3258853908        10.1356765740
        1.6888490850         1.3258853908        15.5322047940
        1.6888490850         5.7515102608         4.7391483540
        1.6888490850         5.7515102608        10.1356765740
        1.6888490850         5.7515102608        15.5322047940
        1.6888490850        10.1771351308         4.7391483540
        1.6888490850        10.1771351308        10.1356765740
        1.6888490850        10.1771351308        15.5322047940
        5.0665472550         1.3258853908         4.7391483540
        5.0665472550         1.3258853908        10.1356765740
        5.0665472550         1.3258853908        15.5322047940
        5.0665472550         5.7515102608         4.7391483540
        5.0665472550         5.7515102608        10.1356765740
        5.0665472550         5.7515102608        15.5322047940
        5.0665472550        10.1771351308         4.7391483540
        5.0665472550        10.1771351308        10.1356765740
        5.0665472550        10.1771351308        15.5322047940
        8.4442454250         1.3258853908         4.7391483540
        8.4442454250         1.3258853908        10.1356765740
        8.4442454250         1.3258853908        15.5322047940
        8.4442454250         5.7515102608         4.7391483540
        8.4442454250         5.7515102608        10.1356765740
        8.4442454250         5.7515102608        15.5322047940
        8.4442454250        10.1771351308         4.7391483540
        8.4442454250        10.1771351308        10.1356765740
        8.4442454250        10.1771351308        15.5322047940
        1.6888490850         3.0997394792         0.6573798660
        1.6888490850         3.0997394792         6.0539080860
        1.6888490850         3.0997394792        11.4504363060
        1.6888490850         7.5253643492         0.6573798660
        1.6888490850         7.5253643492         6.0539080860
        1.6888490850         7.5253643492        11.4504363060
        1.6888490850        11.9509892192         0.6573798660
        1.6888490850        11.9509892192         6.0539080860
        1.6888490850        11.9509892192        11.4504363060
        5.0665472550         3.0997394792         0.6573798660
        5.0665472550         3.0997394792         6.0539080860
        5.0665472550         3.0997394792        11.4504363060
        5.0665472550         7.5253643492         0.6573798660
        5.0665472550         7.5253643492         6.0539080860
        5.0665472550         7.5253643492        11.4504363060
        5.0665472550        11.9509892192         0.6573798660
        5.0665472550        11.9509892192         6.0539080860
        5.0665472550        11.9509892192        11.4504363060
        8.4442454250         3.0997394792         0.6573798660
        8.4442454250         3.0997394792         6.0539080860
        8.4442454250         3.0997394792        11.4504363060
        8.4442454250         7.5253643492         0.6573798660
        8.4442454250         7.5253643492         6.0539080860
        8.4442454250         7.5253643492        11.4504363060
        8.4442454250        11.9509892192         0.6573798660
        8.4442454250        11.9509892192         6.0539080860
        8.4442454250        11.9509892192        11.4504363060
        0.0000000000         0.8869270442         2.0408842440
        0.0000000000         0.8869270442         7.4374124640
        0.0000000000         0.8869270442        12.8339406840
        0.0000000000         5.3125519142         2.0408842440
        0.0000000000         5.3125519142         7.4374124640
        0.0000000000         5.3125519142        12.8339406840
        0.0000000000         9.7381767842         2.0408842440
        0.0000000000         9.7381767842         7.4374124640
        0.0000000000         9.7381767842        12.8339406840
        3.3776981700         0.8869270442         2.0408842440
        3.3776981700         0.8869270442         7.4374124640
        3.3776981700         0.8869270442        12.8339406840
        3.3776981700         5.3125519142         2.0408842440
        3.3776981700         5.3125519142         7.4374124640
        3.3776981700         5.3125519142        12.8339406840
        3.3776981700         9.7381767842         2.0408842440
        3.3776981700         9.7381767842         7.4374124640
        3.3776981700         9.7381767842        12.8339406840
        6.7553963400         0.8869270442         2.0408842440
        6.7553963400         0.8869270442         7.4374124640
        6.7553963400         0.8869270442        12.8339406840
        6.7553963400         5.3125519142         2.0408842440
        6.7553963400         5.3125519142         7.4374124640
        6.7553963400         5.3125519142        12.8339406840
        6.7553963400         9.7381767842         2.0408842440
        6.7553963400         9.7381767842         7.4374124640
        6.7553963400         9.7381767842        12.8339406840
        0.0000000000         3.5386978258         3.3556439760
        0.0000000000         3.5386978258         8.7521721960
        0.0000000000         3.5386978258        14.1487004160
        0.0000000000         7.9643226958         3.3556439760
        0.0000000000         7.9643226958         8.7521721960
        0.0000000000         7.9643226958        14.1487004160
        0.0000000000        12.3899475658         3.3556439760
        0.0000000000        12.3899475658         8.7521721960
        0.0000000000        12.3899475658        14.1487004160
        3.3776981700         3.5386978258         3.3556439760
        3.3776981700         3.5386978258         8.7521721960
        3.3776981700         3.5386978258        14.1487004160
        3.3776981700         7.9643226958         3.3556439760
        3.3776981700         7.9643226958         8.7521721960
        3.3776981700         7.9643226958        14.1487004160
        3.3776981700        12.3899475658         3.3556439760
        3.3776981700        12.3899475658         8.7521721960
        3.3776981700        12.3899475658        14.1487004160
        6.7553963400         3.5386978258         3.3556439760
        6.7553963400         3.5386978258         8.7521721960
        6.7553963400         3.5386978258        14.1487004160
        6.7553963400         7.9643226958         3.3556439760
        6.7553963400         7.9643226958         8.7521721960
        6.7553963400         7.9643226958        14.1487004160
        6.7553963400        12.3899475658         3.3556439760
        6.7553963400        12.3899475658         8.7521721960
        6.7553963400        12.3899475658        14.1487004160
